
(set-logic ALL) 

(declare-datatype MyList ((Nil) (Cons (head Real) (tail MyList)) )) 
(declare-fun l0 () MyList) 
(declare-fun l1 () MyList) 
(declare-fun l2 () MyList) 
(declare-fun l3 () MyList) 
(declare-fun i0 () Real) 
(declare-fun i1 () Real) 
(assert (not (is-Nil Nil)) )
(assert (and (is-Nil Nil) (is-Nil Nil) (= l2 l2)) )
(assert (= l0 l1) )
(assert (= l2 l3) )
(assert (and (= l3 l0) (is-Nil Nil) (= l0 Nil) (= l1 l0)) )
(assert (is-Cons Nil) )
(assert (= l2 l3) )
(assert (not (= l2 Nil)) )
(check-sat)
